40
1 0 4
2 0 2
2 1 2
3 0 2
3 1 2
3 2 7
4 0 2
4 1 6
4 2 6
4 3 6
5 0 5
5 1 3
5 2 2
5 3 3
5 4 1
6 0 2
6 1 2
6 2 2
6 3 4
6 4 5
6 5 4
7 0 7
7 1 7
7 2 3
7 3 4
7 4 3
7 5 6
7 6 2
8 0 4
8 1 6
8 2 5
8 3 1
8 4 6
8 5 5
8 6 5
8 7 3
9 0 3
9 1 5
9 2 1
9 3 5
9 4 7
9 5 7
9 6 2
9 7 5
9 8 4
10 0 5
10 1 6
10 2 2
10 3 1
10 4 7
10 5 7
10 6 5
10 7 6
10 8 4
10 9 7
11 0 3
11 1 2
11 2 4
11 3 7
11 4 6
11 5 2
11 6 3
11 7 5
11 8 6
11 9 2
11 10 1
12 0 2
12 1 7
12 2 6
12 3 6
12 4 7
12 5 7
12 6 5
12 7 2
12 8 2
12 9 1
12 10 2
12 11 7
13 0 3
13 1 4
13 2 6
13 3 7
13 4 6
13 5 7
13 6 5
13 7 6
13 8 3
13 9 2
13 10 5
13 11 6
13 12 2
14 0 2
14 1 6
14 2 3
14 3 6
14 4 5
14 5 6
14 6 2
14 7 7
14 8 2
14 9 1
14 10 4
14 11 3
14 12 5
14 13 5
15 0 1
15 1 2
15 2 1
15 3 2
15 4 6
15 5 3
15 6 6
15 7 5
15 8 6
15 9 3
15 10 1
15 11 5
15 12 6
15 13 4
15 14 7
16 0 5
16 1 7
16 2 5
16 3 5
16 4 3
16 5 6
16 6 3
16 7 7
16 8 4
16 9 3
16 10 2
16 11 5
16 12 7
16 13 2
16 14 4
16 15 7
17 0 4
17 1 5
17 2 7
17 3 4
17 4 6
17 5 4
17 6 1
17 7 5
17 8 2
17 9 1
17 10 6
17 11 4
17 12 4
17 13 5
17 14 5
17 15 7
17 16 7
18 0 4
18 1 3
18 2 3
18 3 3
18 4 2
18 5 2
18 6 2
18 7 2
18 8 3
18 9 2
18 10 2
18 11 4
18 12 5
18 13 5
18 14 5
18 15 5
18 16 4
18 17 1
19 0 2
19 1 2
19 2 1
19 3 3
19 4 4
19 5 1
19 6 5
19 7 7
19 8 3
19 9 7
19 10 1
19 11 4
19 12 3
19 13 2
19 14 4
19 15 3
19 16 5
19 17 7
19 18 4
20 0 4
20 1 3
20 2 2
20 3 3
20 4 3
20 5 3
20 6 3
20 7 7
20 8 3
20 9 4
20 10 7
20 11 4
20 12 7
20 13 4
20 14 5
20 15 6
20 16 6
20 17 6
20 18 4
20 19 6
21 0 3
21 1 1
21 2 1
21 3 3
21 4 1
21 5 7
21 6 7
21 7 1
21 8 7
21 9 4
21 10 7
21 11 7
21 12 2
21 13 3
21 14 7
21 15 5
21 16 3
21 17 7
21 18 7
21 19 1
21 20 2
22 0 7
22 1 2
22 2 3
22 3 2
22 4 7
22 5 3
22 6 7
22 7 7
22 8 2
22 9 3
22 10 4
22 11 5
22 12 2
22 13 5
22 14 4
22 15 3
22 16 1
22 17 3
22 18 6
22 19 5
22 20 1
22 21 1
23 0 7
23 1 2
23 2 3
23 3 4
23 4 5
23 5 5
23 6 1
23 7 3
23 8 4
23 9 5
23 10 7
23 11 7
23 12 6
23 13 3
23 14 1
23 15 5
23 16 7
23 17 4
23 18 6
23 19 4
23 20 1
23 21 7
23 22 5
24 0 6
24 1 3
24 2 6
24 3 4
24 4 5
24 5 7
24 6 6
24 7 3
24 8 2
24 9 5
24 10 7
24 11 1
24 12 3
24 13 2
24 14 2
24 15 4
24 16 5
24 17 7
24 18 2
24 19 2
24 20 5
24 21 2
24 22 5
24 23 4
25 0 6
25 1 4
25 2 6
25 3 2
25 4 6
25 5 3
25 6 2
25 7 1
25 8 6
25 9 5
25 10 7
25 11 2
25 12 5
25 13 4
25 14 7
25 15 3
25 16 5
25 17 2
25 18 4
25 19 7
25 20 3
25 21 5
25 22 5
25 23 3
25 24 2
26 0 7
26 1 7
26 2 2
26 3 4
26 4 3
26 5 3
26 6 5
26 7 6
26 8 7
26 9 1
26 10 6
26 11 6
26 12 5
26 13 1
26 14 6
26 15 6
26 16 5
26 17 3
26 18 5
26 19 4
26 20 2
26 21 5
26 22 7
26 23 5
26 24 1
26 25 6
27 0 6
27 1 5
27 2 6
27 3 7
27 4 6
27 5 5
27 6 6
27 7 1
27 8 6
27 9 5
27 10 5
27 11 5
27 12 3
27 13 2
27 14 2
27 15 5
27 16 5
27 17 1
27 18 6
27 19 7
27 20 6
27 21 7
27 22 6
27 23 2
27 24 7
27 25 4
27 26 4
28 0 6
28 1 1
28 2 3
28 3 2
28 4 4
28 5 1
28 6 1
28 7 2
28 8 1
28 9 6
28 10 7
28 11 5
28 12 4
28 13 5
28 14 6
28 15 4
28 16 4
28 17 7
28 18 7
28 19 6
28 20 2
28 21 7
28 22 2
28 23 1
28 24 1
28 25 3
28 26 6
28 27 6
29 0 5
29 1 2
29 2 7
29 3 3
29 4 7
29 5 1
29 6 4
29 7 1
29 8 5
29 9 4
29 10 2
29 11 6
29 12 1
29 13 3
29 14 7
29 15 5
29 16 1
29 17 2
29 18 6
29 19 7
29 20 6
29 21 1
29 22 2
29 23 5
29 24 6
29 25 2
29 26 3
29 27 7
29 28 2
30 0 7
30 1 3
30 2 4
30 3 5
30 4 7
30 5 2
30 6 2
30 7 1
30 8 7
30 9 6
30 10 5
30 11 1
30 12 6
30 13 6
30 14 7
30 15 6
30 16 2
30 17 7
30 18 4
30 19 1
30 20 2
30 21 6
30 22 4
30 23 5
30 24 2
30 25 2
30 26 4
30 27 7
30 28 7
30 29 5
31 0 5
31 1 7
31 2 7
31 3 2
31 4 3
31 5 7
31 6 5
31 7 1
31 8 5
31 9 5
31 10 1
31 11 6
31 12 7
31 13 6
31 14 4
31 15 4
31 16 6
31 17 3
31 18 6
31 19 3
31 20 6
31 21 5
31 22 1
31 23 3
31 24 6
31 25 2
31 26 1
31 27 5
31 28 7
31 29 1
31 30 3
32 0 1
32 1 4
32 2 5
32 3 6
32 4 7
32 5 4
32 6 2
32 7 1
32 8 2
32 9 3
32 10 7
32 11 5
32 12 2
32 13 7
32 14 2
32 15 7
32 16 2
32 17 5
32 18 1
32 19 5
32 20 6
32 21 3
32 22 2
32 23 1
32 24 6
32 25 7
32 26 3
32 27 5
32 28 4
32 29 1
32 30 3
32 31 2
33 0 5
33 1 5
33 2 7
33 3 2
33 4 3
33 5 6
33 6 6
33 7 3
33 8 2
33 9 7
33 10 3
33 11 7
33 12 3
33 13 7
33 14 7
33 15 2
33 16 3
33 17 5
33 18 5
33 19 6
33 20 7
33 21 1
33 22 4
33 23 7
33 24 4
33 25 6
33 26 3
33 27 5
33 28 5
33 29 5
33 30 1
33 31 2
33 32 7
34 0 3
34 1 4
34 2 1
34 3 3
34 4 7
34 5 6
34 6 3
34 7 1
34 8 3
34 9 7
34 10 3
34 11 6
34 12 1
34 13 7
34 14 3
34 15 5
34 16 1
34 17 3
34 18 4
34 19 6
34 20 1
34 21 7
34 22 4
34 23 3
34 24 5
34 25 2
34 26 3
34 27 6
34 28 2
34 29 7
34 30 5
34 31 2
34 32 1
34 33 6
35 0 6
35 1 1
35 2 1
35 3 2
35 4 3
35 5 5
35 6 5
35 7 3
35 8 1
35 9 5
35 10 5
35 11 3
35 12 7
35 13 1
35 14 6
35 15 3
35 16 4
35 17 2
35 18 3
35 19 2
35 20 2
35 21 5
35 22 1
35 23 1
35 24 6
35 25 5
35 26 7
35 27 4
35 28 3
35 29 1
35 30 1
35 31 4
35 32 2
35 33 6
35 34 2
36 0 7
36 1 1
36 2 5
36 3 4
36 4 6
36 5 4
36 6 2
36 7 2
36 8 5
36 9 4
36 10 7
36 11 2
36 12 5
36 13 1
36 14 4
36 15 3
36 16 4
36 17 7
36 18 2
36 19 4
36 20 5
36 21 1
36 22 4
36 23 3
36 24 2
36 25 1
36 26 3
36 27 6
36 28 1
36 29 3
36 30 5
36 31 1
36 32 2
36 33 5
36 34 4
36 35 3
37 0 4
37 1 6
37 2 4
37 3 1
37 4 5
37 5 1
37 6 7
37 7 3
37 8 7
37 9 7
37 10 1
37 11 3
37 12 4
37 13 6
37 14 6
37 15 5
37 16 3
37 17 4
37 18 6
37 19 2
37 20 1
37 21 1
37 22 1
37 23 5
37 24 7
37 25 6
37 26 3
37 27 7
37 28 3
37 29 1
37 30 7
37 31 3
37 32 4
37 33 4
37 34 4
37 35 5
37 36 4
38 0 7
38 1 5
38 2 7
38 3 5
38 4 2
38 5 7
38 6 5
38 7 2
38 8 2
38 9 3
38 10 4
38 11 6
38 12 4
38 13 5
38 14 1
38 15 7
38 16 3
38 17 6
38 18 2
38 19 4
38 20 2
38 21 4
38 22 5
38 23 4
38 24 1
38 25 7
38 26 3
38 27 4
38 28 5
38 29 5
38 30 3
38 31 1
38 32 4
38 33 4
38 34 6
38 35 3
38 36 6
38 37 7
39 0 6
39 1 1
39 2 1
39 3 7
39 4 7
39 5 1
39 6 3
39 7 2
39 8 6
39 9 5
39 10 4
39 11 6
39 12 5
39 13 3
39 14 7
39 15 3
39 16 7
39 17 2
39 18 2
39 19 5
39 20 7
39 21 7
39 22 2
39 23 6
39 24 1
39 25 1
39 26 3
39 27 6
39 28 2
39 29 7
39 30 7
39 31 5
39 32 3
39 33 6
39 34 7
39 35 7
39 36 1
39 37 7
39 38 4
